17	4	3
15	14	12	12	29	36	15	
0	0	0	0	0	3	1	9	4	8	10	3	2	3	4
3	0	0	9	0	2	2	10	8	6	6	2	10	17
9	0	7	0	0	5	3	4	3	4	7	3	5	14	17
4	9	0	0	2	2	2	10	6	5	1	2	6	7
10	10	3	3	10	1	10	10	9	9	8	2	8	15
225	0	0	8	4	10	1	9	9	5	6	2	9	17
50	2	6	1	0	8	7	8	8	4	3	1	17
100	8	0	8	4	3	9	6	7	1	9	3	11	16	17
100	0	0	4	0	4	3	1	4	9	5	1	12
250	0	0	8	0	4	9	4	3	8	3	2	13	17
175	10	0	0	0	1	8	4	9	6	8	1	13
175	0	2	5	6	5	4	5	2	1	8	2	14	17
1	3	0	0	0	4	3	6	9	10	7	1	17
6	0	10	8	0	8	3	9	8	6	7	1	17
7	0	1	5	1	2	9	6	6	2	4	1	17
1	0	1	0	5	8	2	1	1	1	7	1	17
0	0	0	0	0	9	6	10	3	7	1	0
